BAYES
100
2 2 2 2 2 2 2 2 2 2 2 2 2 2 2 2 2 2 2 2 2 2 2 2 2 2 2 2 2 2 2 2 2 2 2 2 2 2 2 2 2 2 2 2 2 2 2 2 2 2 2 2 2 2 2 2 2 2 2 2 2 2 2 2 2 2 2 2 2 2 2 2 2 2 2 2 2 2 2 2 2 2 2 2 2 2 2 2 2 2 2 2 2 2 2 2 2 2 2 2
100
3 10 1 0
3 11 2 1
3 12 3 2
3 13 4 3
3 14 5 4
3 15 6 5
3 16 7 6
3 17 8 7
3 18 9 8
2 19 9
3 20 11 10
3 21 12 11
3 22 13 12
3 23 14 13
3 24 15 14
3 25 16 15
3 26 17 16
3 27 18 17
3 28 19 18
2 29 19
3 30 21 20
3 31 22 21
3 32 23 22
3 33 24 23
3 34 25 24
3 35 26 25
3 36 27 26
3 37 28 27
3 38 29 28
2 39 29
3 40 31 30
3 41 32 31
3 42 33 32
3 43 34 33
3 44 35 34
3 45 36 35
3 46 37 36
3 47 38 37
3 48 39 38
2 49 39
3 50 41 40
3 51 42 41
3 52 43 42
3 53 44 43
3 54 45 44
3 55 46 45
3 56 47 46
3 57 48 47
3 58 49 48
2 59 49
3 60 51 50
3 61 52 51
3 62 53 52
3 63 54 53
3 64 55 54
3 65 56 55
3 66 57 56
3 67 58 57
3 68 59 58
2 69 59
3 70 61 60
3 71 62 61
3 72 63 62
3 73 64 63
3 74 65 64
3 75 66 65
3 76 67 66
3 77 68 67
3 78 69 68
2 79 69
3 80 71 70
3 81 72 71
3 82 73 72
3 83 74 73
3 84 75 74
3 85 76 75
3 86 77 76
3 87 78 77
3 88 79 78
2 89 79
3 90 81 80
3 91 82 81
3 92 83 82
3 93 84 83
3 94 85 84
3 95 86 85
3 96 87 86
3 97 88 87
3 98 89 88
2 99 89
2 91 90
2 92 91
2 93 92
2 94 93
2 95 94
2 96 95
2 97 96
2 98 97
2 99 98
1  99
8
0 1 1 0 1 0 1 0
8
1 0 1 0 1 0 0 1
8
0 1 0 1 0 1 1 0
8
0 1 0 1 1 0 1 0
8
1 0 0 1 0 1 1 0
8
1 0 0 1 1 0 1 0
8
0 1 0 1 1 0 1 0
8
1 0 0 1 1 0 0 1
8
0.48043226452174204 0.519567735478258 0.3686435422118964 0.6313564577881036 0.019061574582389426 0.9809384254176106 0.4590395201755038 0.5409604798244962
4
0 1 1 0
8
1 0 0 1 1 0 1 0
8
1 0 1 0 0 1 1 0
8
0 1 0 1 1 0 1 0
8
0 1 0 1 0 1 0 1
8
1 0 1 0 0 1 0 1
8
1 0 1 0 0 1 1 0
8
1 0 1 0 1 0 0 1
8
0 1 1 0 1 0 0 1
8
1 0 0 1 0 1 0 1
4
0 1 0 1
8
1 0 1 0 0 1 1 0
8
0 1 1 0 0 1 1 0
8
1 0 0 1 0 1 1 0
8
1 0 0 1 0 1 0 1
8
1 0 1 0 1 0 0 1
8
0 1 0 1 1 0 0 1
8
0 1 1 0 1 0 1 0
8
0.9282032244609353 0.07179677553906477 0.5732192662637089 0.426780733736291 0.3305358138601468 0.6694641861398531 0.5227294728458999 0.47727052715410007
8
0 1 0 1 1 0 0 1
4
0.9466477264237496 0.05335227357625041 0.7475398222786361 0.2524601777213639
8
0 1 1 0 1 0 0 1
8
1 0 0 1 1 0 0 1
8
0 1 0 1 0 1 1 0
8
1 0 1 0 0 1 1 0
8
1 0 0 1 0 1 1 0
8
1 0 0 1 1 0 1 0
8
1 0 0 1 0 1 0 1
8
1 0 1 0 0 1 1 0
8
1 0 0 1 1 0 1 0
4
0.6042898060250215 0.39571019397497853 0.48629881952285525 0.5137011804771447
8
0 1 0 1 1 0 1 0
8
1 0 0 1 1 0 0 1
8
0 1 0 1 0 1 0 1
8
0 1 1 0 0 1 1 0
8
1 0 1 0 1 0 0 1
8
0 1 1 0 1 0 1 0
8
0.35303608474194875 0.6469639152580513 0.38370598667065686 0.6162940133293431 0.8295914662216187 0.17040853377838125 0.48082310564658226 0.5191768943534177
8
0.7542048343851129 0.24579516561488718 0.8095813136992099 0.19041868630079004 0.6572837658892369 0.34271623411076313 0.2736243489581735 0.7263756510418264
8
0.47622664374081214 0.5237733562591879 0.8485985193916816 0.15140148060831835 0.5066234881246807 0.4933765118753193 0.587816767000031 0.41218323299996895
4
0 1 1 0
8
1 0 0 1 1 0 0 1
8
0 1 0 1 0 1 0 1
8
0 1 0 1 1 0 0 1
8
0 1 0 1 1 0 1 0
8
0.7225329602529774 0.2774670397470227 0.2225254500802493 0.7774745499197507 0.4733934319862279 0.526606568013772 0.7079032783500532 0.2920967216499469
8
1 0 1 0 0 1 1 0
8
1 0 0 1 0 1 1 0
8
0 1 0 1 1 0 1 0
8
0 1 0 1 1 0 1 0
4
0 1 1 0
8
0 1 0 1 1 0 0 1
8
0 1 0 1 0 1 0 1
8
0 1 0 1 0 1 0 1
8
1 0 0 1 0 1 0 1
8
0 1 0 1 0 1 1 0
8
1 0 0 1 0 1 1 0
8
1 0 0 1 0 1 1 0
8
0 1 0 1 0 1 1 0
8
0 1 0 1 0 1 0 1
4
0 1 1 0
8
1 0 1 0 0 1 0 1
8
0 1 0 1 1 0 1 0
8
1 0 1 0 0 1 1 0
8
0 1 0 1 0 1 0 1
8
0 1 1 0 1 0 0 1
8
1 0 0 1 1 0 0 1
8
0 1 0 1 1 0 0 1
8
1 0 1 0 0 1 1 0
8
0 1 0 1 1 0 0 1
4
1 0 1 0
8
0 1 0 1 1 0 1 0
8
0.30144233751073674 0.6985576624892633 0.5131705762702369 0.4868294237297632 0.5434198043572763 0.45658019564272373 0.6182566160744217 0.38174338392557833
8
0.4771463557833838 0.5228536442166162 0.3998701308435484 0.6001298691564516 0.7520610031416213 0.2479389968583787 0.47216560784358763 0.5278343921564125
8
1 0 0 1 1 0 1 0
8
1 0 1 0 1 0 1 0
8
1 0 0 1 1 0 0 1
8
1 0 0 1 1 0 1 0
8
1 0 1 0 1 0 0 1
8
1 0 1 0 1 0 0 1
4
0 1 1 0
4
0 1 1 0
4
0 1 0 1
4
0 1 0 1
4
1 0 1 0
4
1 0 1 0
4
0 1 0 1
4
1 0 0 1
4
0 1 1 0
4
0 1 1 0
2
1 0
